CapLotSizing_PM/src/Instancias/NCLSHT/6i6p6m/NBA01.OUT
 CG ITER, OVMR, OVMRUB =           1   14101.2695312    7116.3007812
 CG ITER, OVMR, OVMRUB =           2    7724.2924805    7116.3007812
 CG ITER, OVMR, OVMRUB =           3    7724.2924805    7116.3007812
 CG ITER, OVMR, OVMRUB =           4    7724.2924805    7116.3007812
 CG ITER, OVMR, OVMRUB =           5    7724.2924805    7116.3007812
 CG ITER, OVMR, OVMRUB =           6    7724.2924805    7116.3007812
 CG ITER, OVMR, OVMRUB =           7    7724.2924805    7116.3007812
 CG ITER, OVMR, OVMRUB =           8    7724.2924805    7116.3007812
 CG ITER, OVMR, OVMRUB =           9    7724.2924805    7116.3007812
 CG ITER, OVMR, OVMRUB =          10    7724.2924805    7116.3007812
OVLB =    7724.2924805 OVLUB =    7116.3007812 TIME =       0.6200000
